NAME: tsp20-16
TYPE: TSP
DIMENSION: 20
EDGE_WEIGHT_TYPE: EUC_2D
NODE_COORD_SECTION
0 9 3
1 56 96
2 70 86
3 6 97
4 62 99
5 56 64
6 41 93
7 47 51
8 59 36
9 32 4
10 30 26
11 38 65
12 10 69
13 43 87
14 4 37
15 15 52
16 95 21
17 94 10
18 11 68
19 3 14
EOF